NAME : kroA200.tour
COMMENT : Optimum tour for kroA200.tsp (Length 29368)
TYPE : TOUR
DIMENSION : 200
TOUR_SECTION
180
142
69
108
14
192
60
101
4
163
93
106
149
190
49
18
110
29
184
37
179
153
66
119
19
99
92
10
175
36
57
74
100
156
33
45
197
81
97
104
165
166
96
126
87
52
11
84
48
170
122
116
188
44
63
194
51
16
118
124
138
9
78
82
7
199
26
61
136
32
24
159
174
121
172
46
12
147
40
132
111
117
115
53
1
85
145
191
27
198
123
15
13
79
160
162
64
20
55
42
135
186
127
112
120
47
31
67
177
65
80
77
158
193
128
167
30
68
169
35
2
181
125
161
151
187
157
107
109
6
54
75
183
155
8
22
134
129
146
103
143
17
25
90
34
58
141
171
200
98
114
88
148
28
39
38
71
130
72
83
62
185
168
50
139
86
196
56
152
178
5
105
43
137
133
176
113
195
182
94
95
91
150
173
23
144
70
76
102
164
140
21
154
89
41
59
3
73
189
131
-1
EOF
